50
15944

374 610
879 972
61 555
788 224
738 806
872 499
675 711
899 95
617 440
411 931
311 107
357 878
728 633
993 188
544 174
762 785
525 821
769 132
38 573
150 61
343 907
859 662
704 506
863 727
927 95
903 404
63 886
927 316
798 578
116 302
193 651
217 938
152 593
100 295
710 712
671 713
964 503
408 704
234 992
484 132
109 1000
314 172
845 561
70 482
176 817
126 863
39 307
240 665
330 8
679 59
